\ LP format - for model browsing. Use MPS format to capture full model detail.
Minimize
  0 x(Fernanda,Agua_e_Ar_-_Copa_)
   + 0 x(Fernanda,Agua_e_Ar_-_Corredor_piso_superior)
   + 0 x(Fernanda,Agua_e_Ar_-_Sala_da_segurança_)
   + 0 x(Fernanda,Agua_e_Ar_-_Banheiro__Feminino_)
   + 0 x(Fernanda,Agua_e_Ar_-_Banheiro_Masculino_)
   + 0 x(Fernanda,Predio_da_Antiga_Sala_de_Controle_-_Banheiro_Masculino_)
   + 0 x(Fernanda,Predio_da_Antiga_Sala_de_Controle_-_Copa)
   + 0 x(Fernanda,Predio_da_Antiga_Sala_de_Controle_-_Sala_Supervisão__Manserv)
   + 0 x(Fernanda,Predio_da_Antiga_Sala_de_Controle_-_Banheiro_Feminino_)
   + 0 x(Fernanda,Predio_da_Antiga_Sala_de_Controle_-_Corredor_)
   + 0 x(Fernanda,Planta_Ouro_-_Vestiário_Masculino)
   + 0 x(Fernanda,Planta_Ouro_-_Vestiário_Feminino)
   + 0 x(Fernanda,Planta_Ouro_-_Sala_ADM_e_Segurança)
   + 0 x(Fernanda,Planta_Ouro_-_Copa_)
   + 0 x(Fernanda,Planta_Ouro_-_Corredor) + 0 x(Maria,Agua_e_Ar_-_Copa_)
   + 0 x(Maria,Agua_e_Ar_-_Corredor_piso_superior)
   + 0 x(Maria,Agua_e_Ar_-_Sala_da_segurança_)
   + 0 x(Maria,Agua_e_Ar_-_Banheiro__Feminino_)
   + 0 x(Maria,Agua_e_Ar_-_Banheiro_Masculino_)
   + 0 x(Maria,Predio_da_Antiga_Sala_de_Controle_-_Banheiro_Masculino_)
   + 0 x(Maria,Predio_da_Antiga_Sala_de_Controle_-_Copa)
   + 0 x(Maria,Predio_da_Antiga_Sala_de_Controle_-_Sala_Supervisão__Manserv)
   + 0 x(Maria,Predio_da_Antiga_Sala_de_Controle_-_Banheiro_Feminino_)
   + 0 x(Maria,Predio_da_Antiga_Sala_de_Controle_-_Corredor_)
   + 0 x(Maria,Planta_Ouro_-_Vestiário_Masculino)
   + 0 x(Maria,Planta_Ouro_-_Vestiário_Feminino)
   + 0 x(Maria,Planta_Ouro_-_Sala_ADM_e_Segurança)
   + 0 x(Maria,Planta_Ouro_-_Copa_) + 0 x(Maria,Planta_Ouro_-_Corredor)
   + 0 x(Rita,Agua_e_Ar_-_Copa_)
   + 0 x(Rita,Agua_e_Ar_-_Corredor_piso_superior)
   + 0 x(Rita,Agua_e_Ar_-_Sala_da_segurança_)
   + 0 x(Rita,Agua_e_Ar_-_Banheiro__Feminino_)
   + 0 x(Rita,Agua_e_Ar_-_Banheiro_Masculino_)
   + 0 x(Rita,Predio_da_Antiga_Sala_de_Controle_-_Banheiro_Masculino_)
   + 0 x(Rita,Predio_da_Antiga_Sala_de_Controle_-_Copa)
   + 0 x(Rita,Predio_da_Antiga_Sala_de_Controle_-_Sala_Supervisão__Manserv)
   + 0 x(Rita,Predio_da_Antiga_Sala_de_Controle_-_Banheiro_Feminino_)
   + 0 x(Rita,Predio_da_Antiga_Sala_de_Controle_-_Corredor_)
   + 0 x(Rita,Planta_Ouro_-_Vestiário_Masculino)
   + 0 x(Rita,Planta_Ouro_-_Vestiário_Feminino)
   + 0 x(Rita,Planta_Ouro_-_Sala_ADM_e_Segurança)
   + 0 x(Rita,Planta_Ouro_-_Copa_) + 0 x(Rita,Planta_Ouro_-_Corredor)
   + 0 x(Diná,Agua_e_Ar_-_Copa_)
   + 0 x(Diná,Agua_e_Ar_-_Corredor_piso_superior)
   + 0 x(Diná,Agua_e_Ar_-_Sala_da_segurança_)
   + 0 x(Diná,Agua_e_Ar_-_Banheiro__Feminino_)
   + 0 x(Diná,Agua_e_Ar_-_Banheiro_Masculino_)
   + 0 x(Diná,Predio_da_Antiga_Sala_de_Controle_-_Banheiro_Masculino_)
   + 0 x(Diná,Predio_da_Antiga_Sala_de_Controle_-_Copa)
   + 0 x(Diná,Predio_da_Antiga_Sala_de_Controle_-_Sala_Supervisão__Manserv)
   + 0 x(Diná,Predio_da_Antiga_Sala_de_Controle_-_Banheiro_Feminino_)
   + 0 x(Diná,Predio_da_Antiga_Sala_de_Controle_-_Corredor_)
   + 0 x(Diná,Planta_Ouro_-_Vestiário_Masculino)
   + 0 x(Diná,Planta_Ouro_-_Vestiário_Feminino)
   + 0 x(Diná,Planta_Ouro_-_Sala_ADM_e_Segurança)
   + 0 x(Diná,Planta_Ouro_-_Copa_) + 0 x(Diná,Planta_Ouro_-_Corredor)
   + 0 x(Adelma,Agua_e_Ar_-_Copa_)
   + 0 x(Adelma,Agua_e_Ar_-_Corredor_piso_superior)
   + 0 x(Adelma,Agua_e_Ar_-_Sala_da_segurança_)
   + 0 x(Adelma,Agua_e_Ar_-_Banheiro__Feminino_)
   + 0 x(Adelma,Agua_e_Ar_-_Banheiro_Masculino_)
   + 0 x(Adelma,Predio_da_Antiga_Sala_de_Controle_-_Banheiro_Masculino_)
   + 0 x(Adelma,Predio_da_Antiga_Sala_de_Controle_-_Copa)
   + 0 x(Adelma,Predio_da_Antiga_Sala_de_Controle_-_Sala_Supervisão__Manserv)
   + 0 x(Adelma,Predio_da_Antiga_Sala_de_Controle_-_Banheiro_Feminino_)
   + 0 x(Adelma,Predio_da_Antiga_Sala_de_Controle_-_Corredor_)
   + 0 x(Adelma,Planta_Ouro_-_Vestiário_Masculino)
   + 0 x(Adelma,Planta_Ouro_-_Vestiário_Feminino)
   + 0 x(Adelma,Planta_Ouro_-_Sala_ADM_e_Segurança)
   + 0 x(Adelma,Planta_Ouro_-_Copa_) + 0 x(Adelma,Planta_Ouro_-_Corredor)
   + 0 u(Fernanda,Predio_da_Antiga_Sala_de_Controle,Predio_da_Antiga_Sala_de_Controle)
   + 0 u(Fernanda,Predio_da_Antiga_Sala_de_Controle,Planta_Ouro)
   + 0 u(Fernanda,Predio_da_Antiga_Sala_de_Controle,Agua_e_Ar)
   + 0 u(Fernanda,Planta_Ouro,Predio_da_Antiga_Sala_de_Controle)
   + 0 u(Fernanda,Planta_Ouro,Planta_Ouro)
   + 0 u(Fernanda,Planta_Ouro,Agua_e_Ar)
   + 0 u(Fernanda,Agua_e_Ar,Predio_da_Antiga_Sala_de_Controle)
   + 0 u(Fernanda,Agua_e_Ar,Planta_Ouro)
   + 0 u(Fernanda,Agua_e_Ar,Agua_e_Ar)
   + 0 u(Maria,Predio_da_Antiga_Sala_de_Controle,Predio_da_Antiga_Sala_de_Controle)
   + 0 u(Maria,Predio_da_Antiga_Sala_de_Controle,Planta_Ouro)
   + 0 u(Maria,Predio_da_Antiga_Sala_de_Controle,Agua_e_Ar)
   + 0 u(Maria,Planta_Ouro,Predio_da_Antiga_Sala_de_Controle)
   + 0 u(Maria,Planta_Ouro,Planta_Ouro) + 0 u(Maria,Planta_Ouro,Agua_e_Ar)
   + 0 u(Maria,Agua_e_Ar,Predio_da_Antiga_Sala_de_Controle)
   + 0 u(Maria,Agua_e_Ar,Planta_Ouro) + 0 u(Maria,Agua_e_Ar,Agua_e_Ar)
   + 0 u(Rita,Predio_da_Antiga_Sala_de_Controle,Predio_da_Antiga_Sala_de_Controle)
   + 0 u(Rita,Predio_da_Antiga_Sala_de_Controle,Planta_Ouro)
   + 0 u(Rita,Predio_da_Antiga_Sala_de_Controle,Agua_e_Ar)
   + 0 u(Rita,Planta_Ouro,Predio_da_Antiga_Sala_de_Controle)
   + 0 u(Rita,Planta_Ouro,Planta_Ouro) + 0 u(Rita,Planta_Ouro,Agua_e_Ar)
   + 0 u(Rita,Agua_e_Ar,Predio_da_Antiga_Sala_de_Controle)
   + 0 u(Rita,Agua_e_Ar,Planta_Ouro) + 0 u(Rita,Agua_e_Ar,Agua_e_Ar)
   + 0 u(Diná,Predio_da_Antiga_Sala_de_Controle,Predio_da_Antiga_Sala_de_Controle)
   + 0 u(Diná,Predio_da_Antiga_Sala_de_Controle,Planta_Ouro)
   + 0 u(Diná,Predio_da_Antiga_Sala_de_Controle,Agua_e_Ar)
   + 0 u(Diná,Planta_Ouro,Predio_da_Antiga_Sala_de_Controle)
   + 0 u(Diná,Planta_Ouro,Planta_Ouro) + 0 u(Diná,Planta_Ouro,Agua_e_Ar)
   + 0 u(Diná,Agua_e_Ar,Predio_da_Antiga_Sala_de_Controle)
   + 0 u(Diná,Agua_e_Ar,Planta_Ouro) + 0 u(Diná,Agua_e_Ar,Agua_e_Ar)
   + 0 u(Adelma,Predio_da_Antiga_Sala_de_Controle,Predio_da_Antiga_Sala_de_Controle)
   + 0 u(Adelma,Predio_da_Antiga_Sala_de_Controle,Planta_Ouro)
   + 0 u(Adelma,Predio_da_Antiga_Sala_de_Controle,Agua_e_Ar)
   + 0 u(Adelma,Planta_Ouro,Predio_da_Antiga_Sala_de_Controle)
   + 0 u(Adelma,Planta_Ouro,Planta_Ouro)
   + 0 u(Adelma,Planta_Ouro,Agua_e_Ar)
   + 0 u(Adelma,Agua_e_Ar,Predio_da_Antiga_Sala_de_Controle)
   + 0 u(Adelma,Agua_e_Ar,Planta_Ouro) + 0 u(Adelma,Agua_e_Ar,Agua_e_Ar)
Subject To
Bounds
Binaries

 u(Fernanda,Predio_da_Antiga_Sala_de_Controle,Predio_da_Antiga_Sala_de_Controle)
 u(Fernanda,Predio_da_Antiga_Sala_de_Controle,Planta_Ouro)
 u(Fernanda,Predio_da_Antiga_Sala_de_Controle,Agua_e_Ar)
 u(Fernanda,Planta_Ouro,Predio_da_Antiga_Sala_de_Controle)
 u(Fernanda,Planta_Ouro,Planta_Ouro) u(Fernanda,Planta_Ouro,Agua_e_Ar)
 u(Fernanda,Agua_e_Ar,Predio_da_Antiga_Sala_de_Controle)
 u(Fernanda,Agua_e_Ar,Planta_Ouro) u(Fernanda,Agua_e_Ar,Agua_e_Ar)
 u(Maria,Predio_da_Antiga_Sala_de_Controle,Predio_da_Antiga_Sala_de_Controle)
 u(Maria,Predio_da_Antiga_Sala_de_Controle,Planta_Ouro)
 u(Maria,Predio_da_Antiga_Sala_de_Controle,Agua_e_Ar)
 u(Maria,Planta_Ouro,Predio_da_Antiga_Sala_de_Controle)
 u(Maria,Planta_Ouro,Planta_Ouro) u(Maria,Planta_Ouro,Agua_e_Ar)
 u(Maria,Agua_e_Ar,Predio_da_Antiga_Sala_de_Controle)
 u(Maria,Agua_e_Ar,Planta_Ouro) u(Maria,Agua_e_Ar,Agua_e_Ar)
 u(Rita,Predio_da_Antiga_Sala_de_Controle,Predio_da_Antiga_Sala_de_Controle)
 u(Rita,Predio_da_Antiga_Sala_de_Controle,Planta_Ouro)
 u(Rita,Predio_da_Antiga_Sala_de_Controle,Agua_e_Ar)
 u(Rita,Planta_Ouro,Predio_da_Antiga_Sala_de_Controle)
 u(Rita,Planta_Ouro,Planta_Ouro) u(Rita,Planta_Ouro,Agua_e_Ar)
 u(Rita,Agua_e_Ar,Predio_da_Antiga_Sala_de_Controle)
 u(Rita,Agua_e_Ar,Planta_Ouro) u(Rita,Agua_e_Ar,Agua_e_Ar)
 u(Diná,Predio_da_Antiga_Sala_de_Controle,Predio_da_Antiga_Sala_de_Controle)
 u(Diná,Predio_da_Antiga_Sala_de_Controle,Planta_Ouro)
 u(Diná,Predio_da_Antiga_Sala_de_Controle,Agua_e_Ar)
 u(Diná,Planta_Ouro,Predio_da_Antiga_Sala_de_Controle)
 u(Diná,Planta_Ouro,Planta_Ouro) u(Diná,Planta_Ouro,Agua_e_Ar)
 u(Diná,Agua_e_Ar,Predio_da_Antiga_Sala_de_Controle)
 u(Diná,Agua_e_Ar,Planta_Ouro) u(Diná,Agua_e_Ar,Agua_e_Ar)
 u(Adelma,Predio_da_Antiga_Sala_de_Controle,Predio_da_Antiga_Sala_de_Controle)
 u(Adelma,Predio_da_Antiga_Sala_de_Controle,Planta_Ouro)
 u(Adelma,Predio_da_Antiga_Sala_de_Controle,Agua_e_Ar)
 u(Adelma,Planta_Ouro,Predio_da_Antiga_Sala_de_Controle)
 u(Adelma,Planta_Ouro,Planta_Ouro) u(Adelma,Planta_Ouro,Agua_e_Ar)
 u(Adelma,Agua_e_Ar,Predio_da_Antiga_Sala_de_Controle)
 u(Adelma,Agua_e_Ar,Planta_Ouro) u(Adelma,Agua_e_Ar,Agua_e_Ar)
Generals
 x(Fernanda,Agua_e_Ar_-_Copa_)
 x(Fernanda,Agua_e_Ar_-_Corredor_piso_superior)
 x(Fernanda,Agua_e_Ar_-_Sala_da_segurança_)
 x(Fernanda,Agua_e_Ar_-_Banheiro__Feminino_)
 x(Fernanda,Agua_e_Ar_-_Banheiro_Masculino_)
 x(Fernanda,Predio_da_Antiga_Sala_de_Controle_-_Banheiro_Masculino_)
 x(Fernanda,Predio_da_Antiga_Sala_de_Controle_-_Copa)
 x(Fernanda,Predio_da_Antiga_Sala_de_Controle_-_Sala_Supervisão__Manserv)
 x(Fernanda,Predio_da_Antiga_Sala_de_Controle_-_Banheiro_Feminino_)
 x(Fernanda,Predio_da_Antiga_Sala_de_Controle_-_Corredor_)
 x(Fernanda,Planta_Ouro_-_Vestiário_Masculino)
 x(Fernanda,Planta_Ouro_-_Vestiário_Feminino)
 x(Fernanda,Planta_Ouro_-_Sala_ADM_e_Segurança)
 x(Fernanda,Planta_Ouro_-_Copa_) x(Fernanda,Planta_Ouro_-_Corredor)
 x(Maria,Agua_e_Ar_-_Copa_) x(Maria,Agua_e_Ar_-_Corredor_piso_superior)
 x(Maria,Agua_e_Ar_-_Sala_da_segurança_)
 x(Maria,Agua_e_Ar_-_Banheiro__Feminino_)
 x(Maria,Agua_e_Ar_-_Banheiro_Masculino_)
 x(Maria,Predio_da_Antiga_Sala_de_Controle_-_Banheiro_Masculino_)
 x(Maria,Predio_da_Antiga_Sala_de_Controle_-_Copa)
 x(Maria,Predio_da_Antiga_Sala_de_Controle_-_Sala_Supervisão__Manserv)
 x(Maria,Predio_da_Antiga_Sala_de_Controle_-_Banheiro_Feminino_)
 x(Maria,Predio_da_Antiga_Sala_de_Controle_-_Corredor_)
 x(Maria,Planta_Ouro_-_Vestiário_Masculino)
 x(Maria,Planta_Ouro_-_Vestiário_Feminino)
 x(Maria,Planta_Ouro_-_Sala_ADM_e_Segurança) x(Maria,Planta_Ouro_-_Copa_)
 x(Maria,Planta_Ouro_-_Corredor) x(Rita,Agua_e_Ar_-_Copa_)
 x(Rita,Agua_e_Ar_-_Corredor_piso_superior)
 x(Rita,Agua_e_Ar_-_Sala_da_segurança_)
 x(Rita,Agua_e_Ar_-_Banheiro__Feminino_)
 x(Rita,Agua_e_Ar_-_Banheiro_Masculino_)
 x(Rita,Predio_da_Antiga_Sala_de_Controle_-_Banheiro_Masculino_)
 x(Rita,Predio_da_Antiga_Sala_de_Controle_-_Copa)
 x(Rita,Predio_da_Antiga_Sala_de_Controle_-_Sala_Supervisão__Manserv)
 x(Rita,Predio_da_Antiga_Sala_de_Controle_-_Banheiro_Feminino_)
 x(Rita,Predio_da_Antiga_Sala_de_Controle_-_Corredor_)
 x(Rita,Planta_Ouro_-_Vestiário_Masculino)
 x(Rita,Planta_Ouro_-_Vestiário_Feminino)
 x(Rita,Planta_Ouro_-_Sala_ADM_e_Segurança) x(Rita,Planta_Ouro_-_Copa_)
 x(Rita,Planta_Ouro_-_Corredor) x(Diná,Agua_e_Ar_-_Copa_)
 x(Diná,Agua_e_Ar_-_Corredor_piso_superior)
 x(Diná,Agua_e_Ar_-_Sala_da_segurança_)
 x(Diná,Agua_e_Ar_-_Banheiro__Feminino_)
 x(Diná,Agua_e_Ar_-_Banheiro_Masculino_)
 x(Diná,Predio_da_Antiga_Sala_de_Controle_-_Banheiro_Masculino_)
 x(Diná,Predio_da_Antiga_Sala_de_Controle_-_Copa)
 x(Diná,Predio_da_Antiga_Sala_de_Controle_-_Sala_Supervisão__Manserv)
 x(Diná,Predio_da_Antiga_Sala_de_Controle_-_Banheiro_Feminino_)
 x(Diná,Predio_da_Antiga_Sala_de_Controle_-_Corredor_)
 x(Diná,Planta_Ouro_-_Vestiário_Masculino)
 x(Diná,Planta_Ouro_-_Vestiário_Feminino)
 x(Diná,Planta_Ouro_-_Sala_ADM_e_Segurança) x(Diná,Planta_Ouro_-_Copa_)
 x(Diná,Planta_Ouro_-_Corredor) x(Adelma,Agua_e_Ar_-_Copa_)
 x(Adelma,Agua_e_Ar_-_Corredor_piso_superior)
 x(Adelma,Agua_e_Ar_-_Sala_da_segurança_)
 x(Adelma,Agua_e_Ar_-_Banheiro__Feminino_)
 x(Adelma,Agua_e_Ar_-_Banheiro_Masculino_)
 x(Adelma,Predio_da_Antiga_Sala_de_Controle_-_Banheiro_Masculino_)
 x(Adelma,Predio_da_Antiga_Sala_de_Controle_-_Copa)
 x(Adelma,Predio_da_Antiga_Sala_de_Controle_-_Sala_Supervisão__Manserv)
 x(Adelma,Predio_da_Antiga_Sala_de_Controle_-_Banheiro_Feminino_)
 x(Adelma,Predio_da_Antiga_Sala_de_Controle_-_Corredor_)
 x(Adelma,Planta_Ouro_-_Vestiário_Masculino)
 x(Adelma,Planta_Ouro_-_Vestiário_Feminino)
 x(Adelma,Planta_Ouro_-_Sala_ADM_e_Segurança)
 x(Adelma,Planta_Ouro_-_Copa_) x(Adelma,Planta_Ouro_-_Corredor)
End
